(define-fun inv2 ((x!0 Int) (x!1 Int) (x!2 Int) (x!3 Int) (x!4 Int)) Bool
  (let ((a!1 (not (>= (+ x!0 (* (- 1) x!4)) 1)))
        (a!2 (>= (+ x!3 (* (- 1) (mod x!0 2))) 1))
        (a!3 (not (= (+ (* 5 x!0) x!1) 4)))
        (a!4 (not (= (+ (* 6 x!0) x!1) 2)))
        (a!5 (not (= (+ (* 4 x!0) x!1) 5)))
        (a!6 (not (= (+ (* 3 x!0) x!1) 5)))
        (a!7 (<= (+ x!3 (* (- 1) (mod x!0 2))) (- 1)))
        (a!8 (not (= (+ (* 2 x!0) x!1) 4)))
        (a!9 (not (<= (+ (* 23 x!0) (* 6 x!1) x!2) 11)))
        (a!10 (not (>= (+ x!0 (* (- 1) x!4)) (- 8))))
        (a!11 (<= (+ x!3 (mod (+ 1 x!0) 2)) 0))
        (a!12 (>= (+ x!3 (mod (+ 1 x!0) 2)) 2))
        (a!13 (not (<= (+ (* 18 x!0) (* 5 x!1) x!2) 14)))
        (a!14 (not (>= (+ x!0 (* (- 1) x!4)) (- 7))))
        (a!15 (not (>= (+ x!0 (* (- 1) x!4)) (- 5))))
        (a!16 (not (<= (+ (* 11 x!0) (* 3 x!1) x!2) 18)))
        (a!17 (not (>= (+ x!0 (* (- 1) x!4)) (- 6))))
        (a!18 (<= (+ x!3 (* (- 1) (mod x!0 2))) 0))
        (a!19 (not (<= (+ (* 14 x!0) (* 4 x!1) x!2) 16)))
        (a!20 (not (<= (+ (* 21 x!0) (* 7 x!1) x!2) 27)))
        (a!21 (= (+ x!3 (* (- 1) (mod x!0 2))) 0))
        (a!22 (not (>= (+ x!0 (* (- 1) x!4)) (- 2))))
        (a!23 (= (+ x!3 (mod (+ 1 x!0) 2)) 1))
        (a!24 (not (<= (+ (* 3 x!0) (* 3 x!1) x!2) 7)))
        (a!25 (not (>= (+ x!0 (* (- 1) x!4)) (- 1))))
        (a!26 (not (<= (+ x!0 (* 2 x!1) x!2) 2)))
        (a!27 (not (>= (+ x!0 (* (- 1) x!4)) 0)))
        (a!29 (= (+ (mod x!0 2) (mod (+ 1 x!0) 2)) 1))
        (a!30 (not (<= (+ (* 3 x!0) x!1) (- 2))))
        (a!31 (not (<= (+ (* 2 x!1) x!2) (- 27))))
        (a!32 (not (<= (+ (* 6 x!0) (* 4 x!1) x!2) 13)))
        (a!33 (not (>= (+ x!0 (* (- 1) x!4)) (- 3))))
        (a!34 (not (>= (+ (* 2 x!0) (* (- 1) x!1)) 16)))
        (a!35 (not (<= (+ (* 15 x!0) (* 6 x!1) x!2) (- 6))))
        (a!36 (not (<= (+ x!0 (* 2 x!1) x!2) (- 31))))
        (a!37 (not (<= (+ (* 5 x!0) x!1) 3)))
        (a!38 (not (<= (+ (* 10 x!0) (* 5 x!1) x!2) (- 6))))
        (a!39 (not (<= (+ (* 2 x!0) x!1) 2)))
        (a!40 (not (<= (+ (* 3 x!0) (* 3 x!1) x!2) (- 18))))
        (a!41 (not (<= (+ (* 3 x!0) x!1) 3)))
        (a!42 (or (not (>= x!0 5))
                  (not (<= (+ x!0 x!1) 0))
                  (not (<= (+ x!1 x!2) (- 26)))))
        (a!43 (not (<= (+ (* 2 x!0) x!1) 3)))
        (a!44 (not (<= (+ x!0 (* 2 x!1) x!2) (- 28))))
        (a!45 (or (not (>= x!0 6))
                  (not (<= (+ x!0 x!1) 3))
                  (not (<= (+ x!1 x!2) (- 29)))))
        (a!46 (not (<= (+ (* 49 x!0) (* 7 x!1) x!2) 0)))
        (a!47 (not (<= (+ (* 2 x!0) x!1) (- 1))))
        (a!48 (not (<= (+ (* 36 x!0) (* 6 x!1) x!2) 17)))
        (a!49 (not (<= (+ (* 5 x!0) x!1) 5)))
        (a!50 (not (<= (+ (* 25 x!0) (* 5 x!1) x!2) 21)))
        (a!51 (not (<= (+ (* 2 x!0) (* 2 x!1) x!2) (- 21))))
        (a!52 (not (<= (+ (* 2 x!0) x!1) 5)))
        (a!53 (not (<= (+ (* 3 x!0) (* 3 x!1) x!2) (- 25))))
        (a!54 (not (<= (+ x!0 (* 2 x!1) x!2) (- 30))))
        (a!55 (or (not (>= x!0 6)) (not (<= (+ x!1 x!2) (- 33))))))
  (let ((a!28 (or (not a!21) (not (<= (+ x!1 x!2) (- 1))) a!27)))
    (and (or (not (<= x!2 (- 33))) (not (>= x!0 7)))
         (or (not (<= x!2 (- 1))) a!1)
         (not (<= x!4 9))
         (not a!2)
         a!3
         a!4
         a!5
         a!6
         (not a!7)
         a!8
         (not (= (+ x!0 x!1) 2))
         (not (= x!1 (- 1)))
         (or a!9 a!10)
         (not a!11)
         (not a!12)
         (or a!13 a!14)
         (or a!15 (not (>= x!3 1)) a!16)
         (or a!17 (not a!18) a!19)
         (or a!20 a!17)
         (or (not a!21) a!22 (not a!23) a!24)
         (or (not a!21) a!25 (not a!23) a!26)
         a!28
         (not (<= (+ x!0 x!1) (- 5)))
         (or (not a!21)
             (not (<= x!0 2))
             (not a!23)
             (not (<= x!4 13))
             (not a!29)
             (not (<= x!2 (- 23))))
         (not (<= x!0 (- 1)))
         a!30
         (or (not (>= x!0 4)) (not (<= x!1 (- 6))) a!31)
         (or a!32 a!33)
         (or (not (<= x!1 2)) (not (>= x!0 8)))
         a!34
         a!35
         a!36
         (not (<= x!2 (- 34)))
         (or a!37 a!38)
         (or a!31 a!39)
         (or a!40 a!41)
         a!42
         (or a!43 a!44)
         a!45
         a!46
         (or a!47 a!48)
         (or (not (>= x!0 2)) a!49 a!50)
         (or (not (>= x!0 5)) a!51 a!52)
         (or (not (>= x!0 4)) a!53)
         (or (not (<= x!1 0)) (not (>= x!0 7)) (not (<= x!2 (- 29))))
         (or (not (>= x!0 5)) a!54)
         a!55))))

